CMPL model generation - running

CMPL version: 1.11.0
Authors: Thomas Schleiff, Mike Steglich
Distributed under the GPLv3 

create model instance ...
write model instance ...
CMPL model generation - finished

Solver - running


Welcome to IBM(R) ILOG(R) CPLEX(R) Interactive Optimizer 12.7.1.0
  with Simplex, Mixed Integer & Barrier Optimizers
5725-A06 5725-A29 5724-Y48 5724-Y49 5724-Y54 5724-Y55 5655-Y21
Copyright IBM Corp. 1988, 2017.  All Rights Reserved.

Type 'help' for a list of available commands.
Type 'help' followed by a command name for more
information on commands.

CPLEX> Specified objective sense: MINIMIZE
Selected objective  name:  line[1]
Selected RHS        name:  RHS
Selected bound      name:  BOUND
Problem '/tmp/cmpl.T27398.mps' read.
Read time = 0.15 sec. (20.24 ticks)
CPLEX> New value for mixed integer optimality gap tolerance: 0.007
CPLEX> CPLEX> CPXPARAM_Read_APIEncoding                        "UTF-8"
CPXPARAM_MIP_Tolerances_MIPGap                   0.0070000000000000001
Tried aggregator 3 times.
MIP Presolve eliminated 81350 rows and 53289 columns.
MIP Presolve modified 8411 coefficients.
Aggregator did 1763 substitutions.
Reduced MIP has 7114 rows, 5168 columns, and 22008 nonzeros.
Reduced MIP has 3535 binaries, 0 generals, 0 SOSs, and 0 indicators.
Presolve time = 0.12 sec. (105.57 ticks)
Found incumbent of value 4757.128370 after 0.15 sec. (123.87 ticks)
Probing fixed 0 vars, tightened 291 bounds.
Probing time = 0.04 sec. (15.51 ticks)
Tried aggregator 1 time.
MIP Presolve modified 794 coefficients.
Reduced MIP has 7114 rows, 5168 columns, and 22008 nonzeros.
Reduced MIP has 3745 binaries, 0 generals, 0 SOSs, and 0 indicators.
Presolve time = 0.02 sec. (16.72 ticks)
Probing time = 0.01 sec. (3.04 ticks)
Clique table members: 3015.
MIP emphasis: balance optimality and feasibility.
MIP search method: dynamic search.
Parallel mode: none, using 1 thread.
Root relaxation solution time = 0.39 sec. (295.36 ticks)

        Nodes                                         Cuts/
   Node  Left     Objective  IInf  Best Integer    Best Bound    ItCnt     Gap

*     0+    0                         4757.1284     -447.7753           109.41%
      0     0     2159.5739   463     4757.1284     2159.5739     6345   54.60%
*     0+    0                         2196.5350     2159.5739             1.68%
      0     0     2160.3299   479     2196.5350     Cuts: 372     7300    1.65%
*     0+    0                         2192.0054     2160.3299             1.45%
      0     0     2161.4706   448     2192.0054     Cuts: 445     8268    1.39%
*     0+    0                         2191.4873     2161.4706             1.37%
      0     0     2162.5564   452     2191.4873     Cuts: 504     9131    1.32%
*     0+    0                         2187.7301     2162.5564             1.15%
      0     0     2163.8669   430     2187.7301     Cuts: 496    10250    1.09%
*     0+    0                         2184.9872     2163.8669             0.97%
      0     0     2164.7827   439     2184.9872     Cuts: 444    11014    0.92%
*     0+    0                         2184.8032     2164.7827             0.92%
      0     0     2165.4196   433     2184.8032     Cuts: 419    11723    0.89%
*     0+    0                         2184.6922     2165.4196             0.88%
*     0+    0                         2184.5394     2165.4196             0.88%
*     0+    0                         2183.1070     2165.4196             0.81%
      0     0     2165.8824   433     2183.1070     Cuts: 361    12287    0.79%
      0     0     2166.2791   455     2183.1070     Cuts: 320    12843    0.77%
      0     0     2166.5295   447     2183.1070     Cuts: 267    13268    0.76%
      0     0     2166.7591   450     2183.1070     Cuts: 256    13722    0.75%
      0     0     2166.8553   454     2183.1070     Cuts: 201    14030    0.74%
      0     0     2166.9377   450     2183.1070     Cuts: 189    14304    0.74%
*     0+    0                         2179.7329     2166.9377             0.59%

Flow cuts applied:  808
Mixed integer rounding cuts applied:  575
Gomory fractional cuts applied:  4

Root node processing (before b&c):
  Real time             =    5.26 sec. (4235.28 ticks)
Sequential b&c:
  Real time             =    0.00 sec. (0.00 ticks)
                          ------------
Total (root+branch&cut) =    5.26 sec. (4235.28 ticks)

Solution pool: 11 solutions saved.

MIP - Integer optimal, tolerance (0.007/1e-06):  Objective =  2.1797329130e+03
Current MIP best bound =  2.1669376909e+03 (gap = 12.7952, 0.59%)
Solution time =    5.26 sec.  Iterations = 14304  Nodes = 0 (1)
Deterministic time = 4235.45 ticks  (804.57 ticks/sec)

CPLEX> Incumbent solution written to file '/tmp/cmpl.T27398.gsol'.
CPLEX> 
CMPL: Time used for model generation: 18 seconds
CMPL: Time used for solving the model: 7 seconds


Solution written to ASCII file: /media/sf_ltf/results/output_generated/2017-07-03-5/fair-nonlinear.sol

Solver - finished
